sat
(:elim-unconstrained  19
 :max-memory          18.21
 :memory              18.21
 :num-allocs          50332
 :rlimit-count        17384
 :solve-eqs-elim-vars 49
 :solve-eqs-steps     49
 :time                0.00
 :total-time          0.01)
